networks/zoo_40_228/zoo_40_228-lower.txt
Number of groups: 20
Flow 9: {2 20 0} {20 14 0} {14 16 0} {16 36 0} 
Flow 14: {3 1 0} {1 21 0} 
Flow 24: {3 12 0} {12 32 0} 
Flow 25: {5 13 0} {13 33 0} 
Flow 40: {4 3 0} {3 14 0} {14 17 0} {17 37 0} 
Flow 74: {6 20 0} {20 18 0} {18 38 0} 
Flow 80: {7 20 0} {20 19 0} {19 39 0} 
Flow 84: {8 5 0} {5 20 0} {20 10 0} {10 30 0} 
Flow 99: {9 14 0} {14 3 0} {3 11 0} {11 31 0} 
Flow 108: {10 20 0} {20 7 0} {7 27 0} 
Flow 117: {11 3 0} {3 5 0} {5 25 0} 
Flow 118: {12 3 0} {3 23 0} 
Flow 121: {13 5 0} {5 8 0} {8 28 0} 
Flow 140: {14 15 0} {15 35 0} 
Flow 153: {15 14 0} {14 9 0} {9 29 0} 
Flow 172: {16 14 0} {14 34 0} 
Flow 178: {17 14 0} {14 20 0} {20 2 0} {2 22 0} 
Flow 193: {18 20 0} {20 5 0} {5 3 0} {3 4 0} {4 24 0} 
Flow 211: {19 20 0} {20 40 0} 
Flow 217: {20 6 0} {6 26 0} 
Time taken running everything: 1 seconds
