networks/zoo_40_228/zoo_40_228-lower.sol
<?xml version = "1.0" encoding="UTF-8" standalone="yes"?>
<CPLEXSolution version="1.2">
 <header
   problemName="networks/zoo_40_228/zoo_40_228-lower.lp"
   solutionName="incumbent"
   solutionIndex="-1"
   objectiveValue="20"
   solutionTypeValue="3"
   solutionTypeString="primal"
   solutionStatusValue="101"
   solutionStatusString="integer optimal solution"
   solutionMethodString="mip"
   primalFeasible="1"
   dualFeasible="1"
   MIPNodes="0"
   MIPIterations="409"
   writeLevel="3"/>
 <quality
   epInt="1.0000000000000001e-05"
   epRHS="9.9999999999999995e-07"
   maxIntInfeas="0"
   maxPrimalInfeas="0"
   maxX="1"
   maxSlack="1"/>
 <variables>
  <variable name="Y(9,16)" index="335" value="1"/>
  <variable name="Y(14,1)" index="520" value="1"/>
  <variable name="Y(24,12)" index="931" value="1"/>
  <variable name="Y(25,13)" index="972" value="1"/>
  <variable name="Y(40,17)" index="1576" value="1"/>
  <variable name="Y(74,18)" index="2937" value="1"/>
  <variable name="Y(80,19)" index="3178" value="1"/>
  <variable name="Y(84,10)" index="3329" value="1"/>
  <variable name="Y(99,11)" index="3930" value="1"/>
  <variable name="Y(108,7)" index="4286" value="1"/>
  <variable name="Y(117,5)" index="4644" value="1"/>
  <variable name="Y(118,3)" index="4682" value="1"/>
  <variable name="Y(121,8)" index="4807" value="1"/>
  <variable name="Y(140,15)" index="5574" value="1"/>
  <variable name="Y(153,9)" index="6088" value="1"/>
  <variable name="Y(172,14)" index="6853" value="1"/>
  <variable name="Y(178,2)" index="7081" value="1"/>
  <variable name="Y(193,4)" index="7683" value="1"/>
  <variable name="Y(211,20)" index="8419" value="1"/>
  <variable name="Y(217,6)" index="8645" value="1"/>
  <variable name="X(1,21,14)" index="9133" value="1"/>
  <variable name="X(2,20,9)" index="9356" value="1"/>
  <variable name="X(2,22,178)" index="9753" value="1"/>
  <variable name="X(3,1,14)" index="9817" value="1"/>
  <variable name="X(3,4,193)" index="10224" value="1"/>
  <variable name="X(3,5,117)" index="10376" value="1"/>
  <variable name="X(3,11,99)" index="10586" value="1"/>
  <variable name="X(3,12,24)" index="10739" value="1"/>
  <variable name="X(3,14,40)" index="10983" value="1"/>
  <variable name="X(3,23,118)" index="11289" value="1"/>
  <variable name="X(4,3,40)" index="11439" value="1"/>
  <variable name="X(4,24,193)" index="11820" value="1"/>
  <variable name="X(5,3,193)" index="12048" value="1"/>
  <variable name="X(5,8,121)" index="12204" value="1"/>
  <variable name="X(5,13,25)" index="12336" value="1"/>
  <variable name="X(5,20,84)" index="12623" value="1"/>
  <variable name="X(5,25,117)" index="12884" value="1"/>
  <variable name="X(6,20,74)" index="13069" value="1"/>
  <variable name="X(6,26,217)" index="13440" value="1"/>
  <variable name="X(7,20,80)" index="13531" value="1"/>
  <variable name="X(7,27,108)" index="13787" value="1"/>
  <variable name="X(8,5,84)" index="13991" value="1"/>
  <variable name="X(8,28,121)" index="14256" value="1"/>
  <variable name="X(9,14,99)" index="14462" value="1"/>
  <variable name="X(9,29,153)" index="14744" value="1"/>
  <variable name="X(10,20,108)" index="14927" value="1"/>
  <variable name="X(10,30,84)" index="15131" value="1"/>
  <variable name="X(11,3,117)" index="15392" value="1"/>
  <variable name="X(11,31,99)" index="15602" value="1"/>
  <variable name="X(12,3,118)" index="15849" value="1"/>
  <variable name="X(12,32,24)" index="15983" value="1"/>
  <variable name="X(13,5,121)" index="16308" value="1"/>
  <variable name="X(13,33,25)" index="16440" value="1"/>
  <variable name="X(14,3,99)" index="16742" value="1"/>
  <variable name="X(14,9,153)" index="17024" value="1"/>
  <variable name="X(14,15,140)" index="17239" value="1"/>
  <variable name="X(14,16,9)" index="17336" value="1"/>
  <variable name="X(14,17,40)" index="17595" value="1"/>
  <variable name="X(14,20,178)" index="17961" value="1"/>
  <variable name="X(14,34,172)" index="18183" value="1"/>
  <variable name="X(15,14,153)" index="18392" value="1"/>
  <variable name="X(15,35,140)" index="18607" value="1"/>
  <variable name="X(16,14,172)" index="18867" value="1"/>
  <variable name="X(16,36,9)" index="18932" value="1"/>
  <variable name="X(17,14,178)" index="19329" value="1"/>
  <variable name="X(17,37,40)" index="19419" value="1"/>
  <variable name="X(18,20,193)" index="19800" value="1"/>
  <variable name="X(18,38,74)" index="19909" value="1"/>
  <variable name="X(19,20,211)" index="20274" value="1"/>
  <variable name="X(19,39,80)" index="20371" value="1"/>
  <variable name="X(20,2,178)" index="20697" value="1"/>
  <variable name="X(20,5,193)" index="20940" value="1"/>
  <variable name="X(20,6,217)" index="21192" value="1"/>
  <variable name="X(20,7,108)" index="21311" value="1"/>
  <variable name="X(20,10,84)" index="21515" value="1"/>
  <variable name="X(20,14,9)" index="21668" value="1"/>
  <variable name="X(20,18,74)" index="21961" value="1"/>
  <variable name="X(20,19,80)" index="22195" value="1"/>
  <variable name="X(20,40,211)" index="22554" value="1"/>
 </variables>
</CPLEXSolution>
